##TITLE= caffeine
##JCAMP-DX= 4.24  $$converted Galactic SPC file
##DATA TYPE= INFRARED SPECTRUM
##ORIGIN= EPA1100.SPC 
##OWNER= EPA FT-IR Vapor Phase Library
##DATE= 94/05/05
##TIME= 09:47:00
##MOLFORM= C 8 H 10 N 4 O 2
##CAS REGISTRY NO= 58-08-2
##NPOINTS=  1842
##XUNITS= 1/CM          
##YUNITS= TRANSMITTANCE 
##RESOLUTION= 1.93055
##FIRSTX=  449.413
##LASTX=  4003.553
##XFACTOR= 1.0
##YFACTOR=  5.9604E-8
##FIRSTY=  99.311
##MAXY=  100.92                                 
##MINY=  7.9067                                 
##XYDATA= (X++(Y..Y))
 449.41 1666172247 1662340156 1658516880 1643311506 1635761175 1628245537
 460.99 1617036772 1605905171 1598526705 1580228522 1562139796 1547818013
 472.57 1537162907 1540706434 1537162907 1540706434 1558546974 1572968030
 484.16 1591182144 1620764427 1643311506 1662340156 1677721600 1677721600
 495.74 1677721600 1685465608 1689351008 1685465608 1689351008 1681589144
 507.32 1677721600 1673862950 1666172247 1670013171 1677721600 1670013171
 518.91 1677721600 1673862950 1677721600 1677721600 1677721600 1677721600
 530.49 1677721600 1677721600 1677721600 1677721600 1673862950 1685465608
 542.08 1677721600 1670013171 1673862950 1677721600 1677721600 1670013171
 553.66 1677721600 1673862950 1677721600 1670013171 1677721600 1677721600
 565.24 1681589144 1689351008 1677721600 1677721600 1666172247 1673862950
 576.82 1677721600 1670013171 1662340156 1654702400 1666172247 1658516880
 588.41 1650896689 1666172247 1650896689 1639531994 1631999031 1620764427
 599.99 1617036772 1617036772 1602211691 1583871325 1562139796 1591182144
 611.57 1620764427 1613317690 1628245537 1647099731 1658516880 1658516880
 623.16 1673862950 1673862950 1677721600 1677721600 1677721600 1673862950
 634.74 1666172247 1666172247 1670013171 1666172247 1666172247 1670013171
 646.32 1670013171 1670013171 1673862950 1670013171 1666172247 1677721600
 657.91 1677721600 1685465608 1677721600 1677721600 1673862950 1666172247
 669.49 1654702400 1670013171 1673862950 1673862950 1666172247 1662340156
 681.07 1670013171 1662340156 1666172247 1662340156 1658516880 1662340156
 692.66 1658516880 1662340156 1662340156 1662340156 1662340156 1650896689
 704.24 1658516880 1670013171 1662340156 1666172247 1670013171 1673862950
 715.82 1670013171 1670013171 1662340156 1658516880 1666172247 1658516880
 727.41 1647099731 1639531994 1620764427 1602211691 1594850195 1583871325
 738.99 1562139796 1558546974 1547818013 1544258130 1533627530 1533627530
 750.57 1526581154 1495270950 1491831922 1519567149 1544258130 1547818013
 762.16 1547818013 1533627530 1530100287 1565740901 1591182144 1609607165
 773.74 1617036772 1624500676 1628245537 1650896689 1650896689 1658516880
 785.32 1662340156 1670013171 1670013171 1654702400 1654702400 1662340156
 796.91 1662340156 1658516880 1658516880 1658516880 1650896689 1647099731
 808.49 1647099731 1650896689 1643311506 1643311506 1635761175 1628245537
 820.07 1613317690 1602211691 1605905171 1587522526 1583871325 1562139796
 831.66 1551386099 1576594096 1602211691 1609607165 1613317690 1628245537
 843.24 1639531994 1643311506 1654702400 1666172247 1662340156 1662340156
 854.82 1658516880 1666172247 1662340156 1670013171 1670013171 1670013171
 866.41 1673862950 1670013171 1677721600 1677721600 1670013171 1673862950
 877.99 1673862950 1673862950 1673862950 1673862950 1677721600 1670013171
 889.57 1670013171 1673862950 1666172247 1670013171 1677721600 1673862950
 901.16 1677721600 1673862950 1670013171 1673862950 1673862950 1662340156
 912.74 1666172247 1666172247 1654702400 1654702400 1647099731 1643311506
 924.32 1643311506 1639531994 1639531994 1639531994 1647099731 1647099731
 935.91 1654702400 1658516880 1662340156 1666172247 1662340156 1666172247
 947.49 1666172247 1662340156 1658516880 1654702400 1647099731 1639531994
 959.07 1631999031 1620764427 1609607165 1591182144 1572968030 1547818013
 970.66 1523070114 1509106524 1498717906 1491831922 1491831922 1502172808
 982.24 1516072241 1540706434 1565740901 1594850195 1620764427 1631999031
 993.82 1639531994 1647099731 1643311506 1635761175 1628245537 1609607165
 1005.4 1587522526 1565740901 1537162907 1495270950 1451175363 1408380153
 1016.9 1369997884 1338812925 1314376834 1308337823 1302326556 1320443723
 1028.5 1348093132 1382674317 1424688426 1464602922 1512585371 1551386099
 1040.1 1576594096 1598526705 1613317690 1624500676 1628245537 1628245537
 1051.7 1628245537 1620764427 1624500676 1624500676 1624500676 1620764427
 1063.3 1620764427 1624500676 1628245537 1624500676 1631999031 1635761175
 1074.9 1639531994 1635761175 1639531994 1643311506 1643311506 1643311506
 1086.4 1639531994 1647099731 1639531994 1639531994 1650896689 1647099731
 1098   1647099731 1647099731 1647099731 1650896689 1650896689 1650896689
 1109.6 1650896689 1650896689 1650896689 1650896689 1650896689 1650896689
 1121.2 1650896689 1647099731 1643311506 1647099731 1647099731 1643311506
 1132.8 1639531994 1635761175 1635761175 1628245537 1628245537 1635761175
 1144.4 1635761175 1635761175 1635761175 1635761175 1639531994 1639531994
 1155.9 1639531994 1643311506 1643311506 1639531994 1635761175 1635761175
 1167.5 1631999031 1628245537 1620764427 1613317690 1609607165 1598526705
 1179.1 1583871325 1576594096 1562139796 1551386099 1533627530 1526581154
 1190.7 1519567149 1516072241 1509106524 1509106524 1512585371 1512585371
 1202.3 1519567149 1526581154 1523070114 1519567149 1519567149 1512585371
 1213.9 1509106524 1502172808 1495270950 1484977579 1467979181 1447837752
 1225.4 1411626805 1366846975 1311353851 1263920902 1235150551 1212606511
 1237   1207035092 1212606511 1235150551 1272681985 1329596600 1392258559
 1248.6 1444507817 1481562225 1509106524 1530100287 1540706434 1547818013
 1260.2 1551386099 1558546974 1558546974 1558546974 1554962414 1547818013
 1271.8 1537162907 1523070114 1509106524 1491831922 1478154725 1467979181
 1283.4 1464602922 1467979181 1474755063 1484977579 1502172808 1523070114
 1294.9 1547818013 1569350307 1591182144 1602211691 1609607165 1613317690
 1306.5 1609607165 1605905171 1605905171 1598526705 1591182144 1576594096
 1318.1 1562139796 1540706434 1516072241 1495270950 1474755063 1454520665
 1329.7 1444507817 1434563893 1431264490 1437870905 1441185540 1447837752
 1341.3 1451175363 1451175363 1441185540 1427972673 1405140968 1379494254
 1352.9 1354315648 1338812925 1320443723 1320443723 1326538612 1335733740
 1364.4 1360566886 1382674317 1405140968 1424688426 1441185540 1447837752
 1376   1454520665 1457873682 1454520665 1457873682 1454520665 1451175363
 1387.6 1447837752 1447837752 1447837752 1447837752 1444507817 1444507817
 1399.2 1441185540 1434563893 1424688426 1405140968 1385861711 1357437668
 1410.8 1332661638 1311353851 1296342908 1293361401 1296342908 1311353851
 1422.4 1326538612 1341899208 1360566886 1379494254 1389056453 1395468047
 1433.9 1395468047 1395468047 1389056453 1389056453 1382674317 1376321508
 1445.5 1363703314 1341899208 1308337823 1266834541 1226647833 1193218276
 1457.1 1168745350 1147413345 1136893794 1131670244 1129067474 1123879879
 1468.7 1118716119 1116143146 1111014933 1093251032 1083228047 1083228047
 1480.3 1085725146 1105910282 1136893794 1171439587 1212606511 1255220133
 1491.9 1302326556 1338812925 1366846975 1398684931 1424688426 1441185540
 1503.4 1461234429 1474755063 1488400806 1498717906 1502172808 1502172808
 1515   1498717906 1488400806 1474755063 1454520665 1427972673 1401909233
 1526.6 1382674317 1354315648 1329596600 1308337823 1275615818 1237997867
 1538.2 1212606511 1185004218 1144774367 1116143146 1093251032 1083228047
 1549.8 1078251065 1093251032 1116143146 1155366833 1198725920 1246579257
 1561.4 1332661638 1366846975 1408380153 1441185540 1464602922 1484977579
 1572.9 1505635675 1509106524 1523070114 1530100287 1533627530 1537162907
 1584.5 1533627530 1523070114 1509106524 1488400806 1464602922 1434563893
 1596.1 1392258559 1348093132 1299331287 1263920902 1235150551 1215401858
 1607.7 1212606511 1226647833 1249452920 1281503794 1329596600 1382674317
 1619.3 1454520665 1498717906 1530100287 1554962414 1569350307 1583871325
 1630.9 1587522526 1583871325 1580228522 1576594096 1572968030 1565740901
 1642.4 1551386099 1533627530 1509106524 1478154725 1444507817 1418142577
 1654   1385861711 1335733740 1311353851 1278556416 1246579257 1204258988
 1665.6 1150058404 1088228001 997056791 860438623 709120264 573746298
 1677.2 400608257 292226701 213658362 165089668 147136322 132653861
 1688.8 132653861 143126449 183113303 233732926 329397194 471758676
 1700.4 564572729 709120264 773962460 808574230 827408345 804859170
 1711.9 752869834 675647067 584413038 505498529 427287213 370441723
 1723.5 352143678 356221310 373869378 399686883 475028751 577723317
 1735.1 727310564 917740498 1022633218 1155366833 1263920902 1341899208
 1746.7 1405140968 1444507817 1481562225 1498717906 1509106524 1519567149
 1758.3 1526581154 1530100287 1533627530 1544258130 1551386099 1554962414
 1769.9 1558546974 1569350307 1576594096 1591182144 1594850195 1605905171
 1781.4 1613317690 1617036772 1620764427 1628245537 1635761175 1631999031
 1793   1635761175 1643311506 1639531994 1635761175 1639531994 1639531994
 1804.6 1639531994 1639531994 1639531994 1635761175 1639531994 1639531994
 1816.2 1639531994 1643311506 1643311506 1643311506 1643311506 1643311506
 1827.8 1647099731 1647099731 1647099731 1654702400 1654702400 1654702400
 1839.4 1658516880 1658516880 1654702400 1658516880 1666172247 1662340156
 1850.9 1662340156 1658516880 1654702400 1654702400 1654702400 1650896689
 1862.5 1654702400 1654702400 1654702400 1662340156 1662340156 1666172247
 1874.1 1666172247 1666172247 1670013171 1673862950 1670013171 1670013171
 1885.7 1670013171 1670013171 1670013171 1670013171 1670013171 1670013171
 1897.3 1673862950 1670013171 1670013171 1670013171 1670013171 1670013171
 1908.9 1670013171 1670013171 1673862950 1670013171 1670013171 1670013171
 1920.4 1673862950 1673862950 1673862950 1673862950 1673862950 1673862950
 1932   1673862950 1673862950 1673862950 1673862950 1670013171 1673862950
 1943.6 1673862950 1673862950 1670013171 1670013171 1670013171 1670013171
 1955.2 1670013171 1670013171 1673862950 1673862950 1673862950 1673862950
 1966.8 1673862950 1673862950 1677721600 1677721600 1677721600 1673862950
 1978.4 1673862950 1673862950 1673862950 1673862950 1673862950 1673862950
 1989.9 1673862950 1673862950 1673862950 1673862950 1670013171 1673862950
 2001.5 1673862950 1673862950 1673862950 1673862950 1673862950 1673862950
 2013.1 1673862950 1673862950 1673862950 1673862950 1673862950 1673862950
 2024.7 1673862950 1673862950 1673862950 1673862950 1670013171 1673862950
 2036.3 1677721600 1673862950 1673862950 1677721600 1673862950 1673862950
 2047.9 1677721600 1677721600 1673862950 1673862950 1677721600 1677721600
 2059.4 1677721600 1677721600 1677721600 1677721600 1677721600 1677721600
 2071   1677721600 1677721600 1677721600 1677721600 1677721600 1677721600
 2082.6 1677721600 1677721600 1677721600 1677721600 1677721600 1677721600
 2094.2 1677721600 1677721600 1677721600 1677721600 1677721600 1677721600
 2105.8 1673862950 1673862950 1673862950 1673862950 1677721600 1677721600
 2117.4 1677721600 1677721600 1677721600 1677721600 1677721600 1677721600
 2128.9 1673862950 1677721600 1673862950 1677721600 1677721600 1677721600
 2140.5 1677721600 1677721600 1677721600 1677721600 1677721600 1677721600
 2152.1 1673862950 1673862950 1673862950 1677721600 1677721600 1677721600
 2163.7 1677721600 1673862950 1673862950 1673862950 1673862950 1677721600
 2175.3 1677721600 1673862950 1677721600 1677721600 1677721600 1677721600
 2186.9 1677721600 1677721600 1677721600 1677721600 1677721600 1673862950
 2198.4 1677721600 1673862950 1673862950 1673862950 1673862950 1677721600
 2210   1673862950 1677721600 1677721600 1677721600 1677721600 1677721600
 2221.6 1677721600 1673862950 1677721600 1677721600 1673862950 1673862950
 2233.2 1670013171 1673862950 1670013171 1670013171 1670013171 1673862950
 2244.8 1673862950 1670013171 1670013171 1673862950 1670013171 1673862950
 2256.4 1673862950 1670013171 1673862950 1670013171 1673862950 1673862950
 2267.9 1673862950 1670013171 1670013171 1673862950 1673862950 1673862950
 2279.5 1673862950 1673862950 1673862950 1670013171 1670013171 1670013171
 2291.1 1670013171 1666172247 1662340156 1662340156 1666172247 1662340156
 2302.7 1662340156 1662340156 1658516880 1658516880 1658516880 1658516880
 2314.3 1658516880 1658516880 1658516880 1654702400 1658516880 1654702400
 2325.9 1650896689 1654702400 1658516880 1650896689 1654702400 1654702400
 2337.4 1662340156 1654702400 1650896689 1666172247 1650896689 1650896689
 2349   1654702400 1650896689 1647099731 1654702400 1658516880 1647099731
 2360.6 1654702400 1650896689 1658516880 1650896689 1658516880 1654702400
 2372.2 1662340156 1662340156 1666172247 1662340156 1666172247 1662340156
 2383.8 1666172247 1666172247 1670013171 1670013171 1670013171 1670013171
 2395.4 1673862950 1670013171 1670013171 1670013171 1670013171 1673862950
 2406.9 1673862950 1673862950 1673862950 1673862950 1673862950 1673862950
 2418.5 1673862950 1673862950 1673862950 1677721600 1673862950 1673862950
 2430.1 1677721600 1677721600 1677721600 1677721600 1677721600 1677721600
 2441.7 1677721600 1677721600 1677721600 1677721600 1673862950 1677721600
 2453.3 1673862950 1677721600 1677721600 1677721600 1677721600 1677721600
 2464.9 1673862950 1673862950 1677721600 1677721600 1673862950 1673862950
 2476.4 1673862950 1673862950 1673862950 1673862950 1673862950 1670013171
 2488   1673862950 1673862950 1670013171 1673862950 1673862950 1673862950
 2499.6 1677721600 1673862950 1677721600 1677721600 1677721600 1677721600
 2511.2 1673862950 1677721600 1677721600 1677721600 1673862950 1677721600
 2522.8 1677721600 1673862950 1677721600 1673862950 1677721600 1673862950
 2534.4 1673862950 1673862950 1677721600 1673862950 1673862950 1673862950
 2545.9 1670013171 1670013171 1670013171 1673862950 1670013171 1670013171
 2557.5 1670013171 1670013171 1670013171 1673862950 1670013171 1670013171
 2569.1 1670013171 1670013171 1670013171 1666172247 1670013171 1670013171
 2580.7 1670013171 1670013171 1670013171 1670013171 1670013171 1670013171
 2592.3 1670013171 1670013171 1670013171 1673862950 1670013171 1670013171
 2603.9 1670013171 1673862950 1673862950 1673862950 1673862950 1673862950
 2615.4 1673862950 1673862950 1673862950 1673862950 1673862950 1670013171
 2627   1673862950 1673862950 1677721600 1673862950 1673862950 1677721600
 2638.6 1673862950 1673862950 1673862950 1673862950 1677721600 1677721600
 2650.2 1673862950 1673862950 1673862950 1677721600 1673862950 1677721600
 2661.8 1677721600 1673862950 1673862950 1673862950 1673862950 1673862950
 2673.4 1673862950 1673862950 1673862950 1673862950 1673862950 1673862950
 2684.9 1677721600 1677721600 1677721600 1677721600 1677721600 1677721600
 2696.5 1673862950 1677721600 1677721600 1677721600 1677721600 1673862950
 2708.1 1677721600 1677721600 1677721600 1677721600 1673862950 1673862950
 2719.7 1673862950 1677721600 1673862950 1673862950 1673862950 1673862950
 2731.3 1673862950 1677721600 1673862950 1673862950 1670013171 1673862950
 2742.9 1670013171 1673862950 1670013171 1670013171 1670013171 1670013171
 2754.4 1670013171 1670013171 1670013171 1673862950 1673862950 1673862950
 2766   1670013171 1670013171 1670013171 1673862950 1673862950 1673862950
 2777.6 1673862950 1670013171 1677721600 1670013171 1670013171 1670013171
 2789.2 1670013171 1673862950 1670013171 1673862950 1673862950 1670013171
 2800.8 1670013171 1670013171 1666172247 1670013171 1666172247 1666172247
 2812.4 1666172247 1662340156 1662340156 1658516880 1662340156 1658516880
 2823.9 1654702400 1658516880 1658516880 1654702400 1658516880 1658516880
 2835.5 1658516880 1662340156 1658516880 1658516880 1658516880 1654702400
 2847.1 1654702400 1658516880 1654702400 1650896689 1654702400 1654702400
 2858.7 1650896689 1650896689 1647099731 1647099731 1643311506 1647099731
 2870.3 1643311506 1639531994 1635761175 1639531994 1631999031 1631999031
 2881.8 1631999031 1631999031 1628245537 1624500676 1624500676 1620764427
 2893.4 1620764427 1617036772 1609607165 1609607165 1602211691 1602211691
 2905   1602211691 1602211691 1598526705 1598526705 1598526705 1598526705
 2916.6 1598526705 1594850195 1594850195 1594850195 1591182144 1587522526
 2928.2 1580228522 1580228522 1576594096 1569350307 1562139796 1551386099
 2939.8 1544258130 1533627530 1526581154 1509106524 1495270950 1481562225
 2951.3 1471363223 1451175363 1437870905 1421411733 1408380153 1405140968
 2962.9 1392258559 1392258559 1395468047 1405140968 1414880942 1431264490
 2974.5 1447837752 1461234429 1481562225 1498717906 1523070114 1537162907
 2986.1 1547818013 1562139796 1576594096 1583871325 1587522526 1598526705
 2997.7 1605905171 1605905171 1613317690 1617036772 1617036772 1617036772
 3009.3 1624500676 1624500676 1631999031 1631999031 1635761175 1639531994
 3020.8 1643311506 1643311506 1647099731 1647099731 1647099731 1650896689
 3032.4 1647099731 1650896689 1658516880 1662340156 1662340156 1658516880
 3044   1658516880 1658516880 1658516880 1658516880 1662340156 1662340156
 3055.6 1658516880 1662340156 1662340156 1662340156 1662340156 1662340156
 3067.2 1662340156 1662340156 1666172247 1666172247 1662340156 1666172247
 3078.8 1662340156 1666172247 1666172247 1662340156 1670013171 1662340156
 3090.3 1662340156 1662340156 1662340156 1666172247 1662340156 1662340156
 3101.9 1662340156 1666172247 1662340156 1666172247 1670013171 1666172247
 3113.5 1666172247 1666172247 1666172247 1662340156 1662340156 1666172247
 3125.1 1662340156 1662340156 1666172247 1666172247 1666172247 1673862950
 3136.7 1670013171 1670013171 1673862950 1677721600 1673862950 1677721600
 3148.3 1677721600 1677721600 1677721600 1677721600 1677721600 1677721600
 3159.8 1677721600 1677721600 1677721600 1677721600 1681589144 1677721600
 3171.4 1681589144 1681589144 1677721600 1677721600 1677721600 1677721600
 3183   1681589144 1677721600 1681589144 1677721600 1677721600 1677721600
 3194.6 1677721600 1677721600 1681589144 1681589144 1681589144 1677721600
 3206.2 1677721600 1677721600 1681589144 1681589144 1681589144 1681589144
 3217.8 1681589144 1681589144 1681589144 1681589144 1677721600 1677721600
 3229.3 1677721600 1677721600 1677721600 1677721600 1677721600 1681589144
 3240.9 1677721600 1681589144 1681589144 1677721600 1677721600 1677721600
 3252.5 1677721600 1677721600 1677721600 1681589144 1677721600 1677721600
 3264.1 1681589144 1677721600 1677721600 1677721600 1677721600 1677721600
 3275.7 1677721600 1681589144 1677721600 1677721600 1677721600 1681589144
 3287.3 1677721600 1677721600 1677721600 1681589144 1681589144 1677721600
 3298.8 1681589144 1677721600 1681589144 1677721600 1677721600 1677721600
 3310.4 1681589144 1681589144 1681589144 1681589144 1685465608 1681589144
 3322   1681589144 1681589144 1681589144 1677721600 1677721600 1681589144
 3333.6 1681589144 1685465608 1685465608 1681589144 1681589144 1685465608
 3345.2 1685465608 1681589144 1681589144 1677721600 1677721600 1685465608
 3356.8 1685465608 1681589144 1681589144 1677721600 1677721600 1677721600
 3368.3 1677721600 1677721600 1677721600 1677721600 1681589144 1677721600
 3379.9 1677721600 1677721600 1677721600 1677721600 1673862950 1670013171
 3391.5 1666172247 1662340156 1662340156 1658516880 1662340156 1658516880
 3403.1 1654702400 1662340156 1670013171 1673862950 1673862950 1673862950
 3414.7 1677721600 1677721600 1677721600 1681589144 1685465608 1681589144
 3426.3 1685465608 1681589144 1677721600 1681589144 1681589144 1677721600
 3437.8 1681589144 1685465608 1689351008 1685465608 1681589144 1685465608
 3449.4 1685465608 1689351008 1689351008 1689351008 1689351008 1685465608
 3461   1685465608 1677721600 1681589144 1681589144 1677721600 1685465608
 3472.6 1681589144 1689351008 1685465608 1681589144 1681589144 1681589144
 3484.2 1677721600 1677721600 1681589144 1681589144 1677721600 1681589144
 3495.8 1677721600 1681589144 1685465608 1681589144 1689351008 1681589144
 3507.3 1689351008 1689351008 1677721600 1681589144 1685465608 1681589144
 3518.9 1681589144 1681589144 1685465608 1681589144 1677721600 1677721600
 3530.5 1677721600 1681589144 1681589144 1685465608 1685465608 1689351008
 3542.1 1689351008 1685465608 1681589144 1677721600 1685465608 1677721600
 3553.7 1677721600 1681589144 1685465608 1685465608 1681589144 1677721600
 3565.3 1681589144 1677721600 1685465608 1689351008 1681589144 1685465608
 3576.8 1681589144 1681589144 1689351008 1681589144 1681589144 1677721600
 3588.4 1677721600 1681589144 1685465608 1681589144 1677721600 1677721600
 3600   1677721600 1681589144 1677721600 1685465608 1677721600 1681589144
 3611.6 1681589144 1677721600 1681589144 1681589144 1681589144 1677721600
 3623.2 1677721600 1689351008 1681589144 1677721600 1681589144 1681589144
 3634.8 1677721600 1681589144 1681589144 1681589144 1681589144 1681589144
 3646.3 1685465608 1681589144 1677721600 1681589144 1681589144 1677721600
 3657.9 1677721600 1677721600 1677721600 1677721600 1677721600 1685465608
 3669.5 1681589144 1685465608 1685465608 1685465608 1681589144 1685465608
 3681.1 1677721600 1677721600 1689351008 1681589144 1681589144 1677721600
 3692.7 1673862950 1677721600 1685465608 1685465608 1681589144 1681589144
 3704.3 1681589144 1689351008 1685465608 1685465608 1685465608 1685465608
 3715.8 1689351008 1681589144 1689351008 1681589144 1685465608 1681589144
 3727.4 1681589144 1681589144 1681589144 1681589144 1693245365 1685465608
 3739   1681589144 1685465608 1681589144 1681589144 1681589144 1689351008
 3750.6 1681589144 1681589144 1681589144 1685465608 1689351008 1681589144
 3762.2 1681589144 1685465608 1681589144 1685465608 1689351008 1689351008
 3773.8 1689351008 1685465608 1681589144 1681589144 1685465608 1681589144
 3785.3 1685465608 1681589144 1685465608 1689351008 1689351008 1685465608
 3796.9 1685465608 1685465608 1689351008 1685465608 1685465608 1689351008
 3808.5 1689351008 1689351008 1685465608 1689351008 1693245365 1689351008
 3820.1 1689351008 1685465608 1685465608 1689351008 1685465608 1685465608
 3831.7 1677721600 1685465608 1685465608 1685465608 1681589144 1681589144
 3843.3 1681589144 1681589144 1681589144 1677721600 1685465608 1681589144
 3854.8 1681589144 1681589144 1677721600 1681589144 1685465608 1681589144
 3866.4 1681589144 1685465608 1681589144 1681589144 1685465608 1689351008
 3878   1693245365 1689351008 1689351008 1689351008 1689351008 1689351008
 3889.6 1685465608 1685465608 1681589144 1689351008 1685465608 1685465608
 3901.2 1689351008 1685465608 1685465608 1685465608 1685465608 1685465608
 3912.8 1685465608 1685465608 1685465608 1681589144 1685465608 1689351008
 3924.3 1685465608 1685465608 1689351008 1689351008 1689351008 1693245365
 3935.9 1689351008 1689351008 1689351008 1689351008 1689351008 1689351008
 3947.5 1685465608 1685465608 1685465608 1681589144 1681589144 1681589144
 3959.1 1681589144 1681589144 1685465608 1685465608 1685465608 1689351008
 3970.7 1689351008 1689351008 1689351008 1689351008 1689351008 1689351008
 3982.3 1689351008 1689351008 1689351008 1685465608 1685465608 1685465608
 3993.8 1685465608 1685465608 1685465608 1681589144 1681589144 1681589144
##END= 